
Gurobi 6.5.2 (linux64) logging started Tue Mar 21 10:45:28 2017


Gurobi 6.5.2 (linux64) logging started Tue Mar 21 10:45:28 2017

Optimize a model with 101 rows, 418 columns and 915 nonzeros
Coefficient statistics:
  Matrix range    [1e+00, 2e+00]
  Objective range [2e+00, 1e+02]
  Bounds range    [1e+00, 1e+00]
  RHS range       [1e+00, 1e+00]
Presolve removed 34 rows and 15 columns
Presolve time: 0.00s
Presolved: 67 rows, 403 columns, 822 nonzeros
Variable types: 0 continuous, 403 integer (403 binary)

Root relaxation: objective 9.640000e+02, 65 iterations, 0.00 seconds

    Nodes    |    Current Node    |     Objective Bounds      |     Work
 Expl Unexpl |  Obj  Depth IntInf | Incumbent    BestBd   Gap | It/Node Time

     0     0  964.00000    0   10          -  964.00000      -     -    0s
H    0     0                    1288.0000000  964.00000  25.2%     -    0s
H    0     0                    1186.0000000  964.00000  18.7%     -    0s
     0     0  995.50000    0    4 1186.00000  995.50000  16.1%     -    0s
     0     0  999.33333    0   20 1186.00000  999.33333  15.7%     -    0s
     0     0  999.33333    0   18 1186.00000  999.33333  15.7%     -    0s
     0     0 1001.00000    0    2 1186.00000 1001.00000  15.6%     -    0s
     0     0 1001.00000    0    2 1186.00000 1001.00000  15.6%     -    0s
     0     0 1001.16667    0   36 1186.00000 1001.16667  15.6%     -    0s
     0     0 1001.16667    0   31 1186.00000 1001.16667  15.6%     -    0s
H    0     2                    1150.0000000 1001.16667  12.9%     -    0s
     0     2 1001.16667    0   31 1150.00000 1001.16667  12.9%     -    0s
*   52    25              17    1026.0000000 1004.50000  2.10%   3.5    0s
H  392    82                    1018.0000000 1005.66667  1.21%   3.8    0s
*  934    17               8    1012.0000000 1006.00000  0.59%   3.5    0s

Cutting planes:
  Gomory: 10
  Cover: 34
  Zero half: 2
  Lazy constraints: 175

Explored 1182 nodes (4010 simplex iterations) in 0.23 seconds
Thread count was 4 (of 4 available processors)

Optimal solution found (tolerance 1.00e-04)
Best objective 1.012000000000e+03, best bound 1.012000000000e+03, gap 0.0%
